
Gurobi 7.5.1 (win64, Python) logging started 10/14/17 00:04:44

Academic license - for non-commercial use only

Gurobi 7.5.1 (win64, Python) logging started 10/14/17 00:04:44

Academic license - for non-commercial use only

Gurobi 7.5.1 (win64, Python) logging started 10/14/17 00:05:05


Gurobi 7.5.1 (win64, Python) logging started 10/14/17 00:05:05

Academic license - for non-commercial use only
Academic license - for non-commercial use only

Gurobi 7.5.1 (win64, Python) logging started 10/14/17 00:05:58

Academic license - for non-commercial use only

Gurobi 7.5.1 (win64, Python) logging started 10/14/17 00:05:58

Academic license - for non-commercial use only

Gurobi 7.5.1 (win64, Python) logging started 10/14/17 00:09:26

Academic license - for non-commercial use only

Gurobi 7.5.1 (win64, Python) logging started 10/14/17 00:09:26

Academic license - for non-commercial use only

Gurobi 7.5.1 (win64, Python) logging started 10/14/17 00:15:08

Academic license - for non-commercial use only

Gurobi 7.5.1 (win64, Python) logging started 10/14/17 00:15:08

Academic license - for non-commercial use only

Gurobi 7.5.1 (win64, Python) logging started 10/14/17 00:16:25


Gurobi 7.5.1 (win64, Python) logging started 10/14/17 00:16:25

Academic license - for non-commercial use only
Academic license - for non-commercial use only

Gurobi 7.5.1 (win64, Python) logging started 10/14/17 00:18:57

Academic license - for non-commercial use only

Gurobi 7.5.1 (win64, Python) logging started 10/14/17 00:18:57

Academic license - for non-commercial use only

Gurobi 7.5.1 (win64, Python) logging started 10/14/17 00:19:27

Academic license - for non-commercial use only

Gurobi 7.5.1 (win64, Python) logging started 10/14/17 00:19:27

Academic license - for non-commercial use only

Gurobi 7.5.1 (win64, Python) logging started 10/14/17 00:29:03

Academic license - for non-commercial use only

Gurobi 7.5.1 (win64, Python) logging started 10/14/17 00:29:03

Academic license - for non-commercial use only

Gurobi 7.5.1 (win64, Python) logging started 10/14/17 00:29:48

Academic license - for non-commercial use only

Gurobi 7.5.1 (win64, Python) logging started 10/14/17 00:29:48

Academic license - for non-commercial use only

Gurobi 7.5.1 (win64, Python) logging started 10/14/17 00:31:11

Academic license - for non-commercial use only

Gurobi 7.5.1 (win64, Python) logging started 10/14/17 00:31:11

Academic license - for non-commercial use only

Gurobi 7.5.1 (win64, Python) logging started 10/14/17 00:33:29

Academic license - for non-commercial use only

Gurobi 7.5.1 (win64, Python) logging started 10/14/17 00:33:29

Academic license - for non-commercial use only

Gurobi 7.5.1 (win64, Python) logging started 10/14/17 00:34:58

Academic license - for non-commercial use only

Gurobi 7.5.1 (win64, Python) logging started 10/14/17 00:34:58

Academic license - for non-commercial use only

Gurobi 7.5.1 (win64, Python) logging started 10/14/17 00:35:38

Academic license - for non-commercial use only

Gurobi 7.5.1 (win64, Python) logging started 10/14/17 00:35:38

Academic license - for non-commercial use only

Gurobi 7.5.1 (win64, Python) logging started 10/14/17 00:36:04


Gurobi 7.5.1 (win64, Python) logging started 10/14/17 00:36:04

Academic license - for non-commercial use only
Academic license - for non-commercial use only

Gurobi 7.5.1 (win64, Python) logging started 10/14/17 00:36:28

Academic license - for non-commercial use only

Gurobi 7.5.1 (win64, Python) logging started 10/14/17 00:36:28

Academic license - for non-commercial use only

Gurobi 7.5.1 (win64, Python) logging started 10/14/17 00:39:14

Academic license - for non-commercial use only

Gurobi 7.5.1 (win64, Python) logging started 10/14/17 00:39:14

Academic license - for non-commercial use only

Gurobi 7.5.1 (win64, Python) logging started 10/14/17 00:40:26

Academic license - for non-commercial use only

Gurobi 7.5.1 (win64, Python) logging started 10/14/17 00:40:26

Academic license - for non-commercial use only

Gurobi 7.5.1 (win64, Python) logging started 10/14/17 00:41:09

Academic license - for non-commercial use only

Gurobi 7.5.1 (win64, Python) logging started 10/14/17 00:41:09

Academic license - for non-commercial use only

Gurobi 7.5.1 (win64, Python) logging started 10/14/17 00:43:59

Academic license - for non-commercial use only

Gurobi 7.5.1 (win64, Python) logging started 10/14/17 00:43:59

Academic license - for non-commercial use only

Gurobi 7.5.1 (win64, Python) logging started 10/14/17 00:45:15

Academic license - for non-commercial use only

Gurobi 7.5.1 (win64, Python) logging started 10/14/17 00:45:15

Academic license - for non-commercial use only

Gurobi 7.5.1 (win64, Python) logging started 10/14/17 00:47:15

Academic license - for non-commercial use only

Gurobi 7.5.1 (win64, Python) logging started 10/14/17 00:47:15

Academic license - for non-commercial use only

Gurobi 7.5.1 (win64, Python) logging started 10/14/17 00:47:46

Academic license - for non-commercial use only

Gurobi 7.5.1 (win64, Python) logging started 10/14/17 00:47:46

Academic license - for non-commercial use only

Gurobi 7.5.1 (win64, Python) logging started 10/14/17 00:50:04

Academic license - for non-commercial use only

Gurobi 7.5.1 (win64, Python) logging started 10/14/17 00:50:04

Academic license - for non-commercial use only

Gurobi 7.5.1 (win64, Python) logging started 10/14/17 00:50:46

Academic license - for non-commercial use only

Gurobi 7.5.1 (win64, Python) logging started 10/14/17 00:50:46

Academic license - for non-commercial use only

Gurobi 7.5.1 (win64, Python) logging started 10/14/17 00:51:54

Academic license - for non-commercial use only

Gurobi 7.5.1 (win64, Python) logging started 10/14/17 00:51:54

Academic license - for non-commercial use only

Gurobi 7.5.1 (win64, Python) logging started 10/14/17 00:52:33

Academic license - for non-commercial use only

Gurobi 7.5.1 (win64, Python) logging started 10/14/17 00:52:33

Academic license - for non-commercial use only

Gurobi 7.5.1 (win64, Python) logging started 10/14/17 00:56:20

Academic license - for non-commercial use only

Gurobi 7.5.1 (win64, Python) logging started 10/14/17 00:56:20

Academic license - for non-commercial use only

Gurobi 7.5.1 (win64, Python) logging started 10/14/17 01:00:27

Academic license - for non-commercial use only

Gurobi 7.5.1 (win64, Python) logging started 10/14/17 01:00:27

Academic license - for non-commercial use only

Gurobi 7.5.1 (win64, Python) logging started 10/14/17 01:01:39

Academic license - for non-commercial use only

Gurobi 7.5.1 (win64, Python) logging started 10/14/17 01:01:39

Academic license - for non-commercial use only

Gurobi 7.5.1 (win64, Python) logging started 10/14/17 01:02:21

Academic license - for non-commercial use only

Gurobi 7.5.1 (win64, Python) logging started 10/14/17 01:02:21

Academic license - for non-commercial use only

Gurobi 7.5.1 (win64, Python) logging started 10/14/17 01:03:54

Academic license - for non-commercial use only

Gurobi 7.5.1 (win64, Python) logging started 10/14/17 01:03:54

Academic license - for non-commercial use only

Gurobi 7.5.1 (win64, Python) logging started 10/14/17 01:09:17

Academic license - for non-commercial use only

Gurobi 7.5.1 (win64, Python) logging started 10/14/17 01:09:17

Academic license - for non-commercial use only

Gurobi 7.5.1 (win64, Python) logging started 10/14/17 01:18:27

Academic license - for non-commercial use only

Gurobi 7.5.1 (win64, Python) logging started 10/14/17 01:18:27

Academic license - for non-commercial use only

Gurobi 7.5.1 (win64, Python) logging started 10/14/17 01:30:49

Academic license - for non-commercial use only

Gurobi 7.5.1 (win64, Python) logging started 10/14/17 01:30:49

Academic license - for non-commercial use only

Gurobi 7.5.1 (win64, Python) logging started 10/14/17 01:33:28

Academic license - for non-commercial use only

Gurobi 7.5.1 (win64, Python) logging started 10/14/17 01:33:28

Academic license - for non-commercial use only

Gurobi 7.5.1 (win64, Python) logging started 10/14/17 01:57:58

Academic license - for non-commercial use only

Gurobi 7.5.1 (win64, Python) logging started 10/14/17 01:57:58

Academic license - for non-commercial use only

Gurobi 7.5.1 (win64, Python) logging started 10/15/17 17:56:05

Academic license - for non-commercial use only
